num_process_links = 69;
process_links_to = array1d(1..69,[40, 38, 36, 35, 32, 32, 38, 30, 28, 32, 35, 30, 26, 24, 35, 31, 29, 34, 26, 39, 27, 25, 33, 32, 22, 32, 28, 18, 27, 25, 23, 38, 35, 27, 19, 40, 32, 27, 23, 16, 36, 24, 19, 17, 14, 13, 36, 10, 32, 12, 40, 37, 36, 35, 11, 32, 15, 11, 6, 24, 29, 21, 4, 35, 11, 8, 35, 30, 11]);
process_links_from = array1d(1..69,[37, 37, 33, 31, 31, 30, 28, 26, 26, 25, 24, 23, 23, 23, 21, 21, 21, 20, 20, 19, 19, 19, 18, 18, 18, 17, 16, 16, 15, 14, 14, 12, 12, 12, 12, 11, 11, 10, 10, 10, 9, 9, 9, 9, 9, 9, 8, 8, 7, 7, 6, 6, 6, 6, 6, 5, 5, 5, 5, 4, 3, 3, 3, 2, 2, 2, 1, 1, 1]);
process_memory = array1d(1..40,[432, 495, 221, 360, 379, 502, 415, 271, 365, 234, 333, 297, 430, 157, 85, 201, 142, 341, 201, 279, 79, 49, 401, 226, 417, 180, 219, 222, 449, 448, 206, 385, 84, 101, 438, 121, 198, 433, 320, 106]);
node_memory = array1d(1..20,[968, 1168, 1206, 1273, 1922, 1841, 1397, 1578, 2019, 1377, 1264, 1952, 1000, 1908, 1675, 957, 1931, 1481, 680, 1428]);
node_cpu = array1d(1..20,[758, 573, 928, 829, 824, 932, 997, 844, 719, 672, 590, 565, 693, 787, 714, 865, 522, 646, 773, 782]);
topology = array2d(1..20,1..20,[true, true, true, true, false, true, true, true, true, true, true, true, false, true, true, true, true, true, true, false, true, true, true, false, true, false, true, true, true, true, true, true, true, true, true, true, true, true, false, true, true, true, true, false, false, true, true, true, true, true, true, true, false, true, true, true, true, true, true, true, true, false, false, true, true, true, true, true, true, true, true, true, true, true, true, true, false, true, true, true, false, true, false, true, true, true, true, true, true, false, true, true, true, true, true, true, false, true, true, true, true, false, true, true, true, true, true, true, true, true, true, true, true, true, true, true, true, false, true, true, true, true, true, true, true, true, true, true, true, true, true, true, true, true, true, true, true, true, true, true, true, true, true, true, true, true, true, true, true, false, true, true, true, true, true, true, true, true, true, false, true, true, true, true, true, true, true, true, true, true, false, true, true, true, true, true, true, true, true, true, true, true, true, true, false, true, true, false, true, true, true, true, true, true, true, true, true, true, true, true, true, true, true, true, true, true, true, true, false, true, true, true, false, false, true, true, true, true, true, true, true, true, true, true, true, true, true, true, true, true, true, true, true, false, true, false, true, true, true, true, false, true, false, true, true, true, true, true, true, true, false, true, true, true, true, true, true, true, true, true, true, true, true, true, true, true, true, true, true, true, false, false, true, true, true, true, true, true, true, true, true, true, true, true, true, true, true, true, true, true, true, true, true, true, true, false, true, true, true, true, true, true, true, true, true, true, true, true, true, true, true, false, true, true, false, true, true, true, true, true, true, true, true, false, false, true, true, true, true, true, true, true, true, true, true, true, true, false, true, true, true, true, true, true, true, false, true, true, true, true, true, true, true, true, true, true, false, true, true, true, true, false, true, true, true, true, true, true, true, true, true, true, true, true, true, true, true, true, true, true, false, true, true, true, true, true, true, false, true, true, true, true, true, true, true, true, true, true, true, true]);
num_processes = 40;
num_nodes = 20;
process_load = array1d(1..40,[437, 230, 600, 227, 147, 438, 190, 333, 386, 221, 570, 351, 148, 163, 102, 354, 387, 259, 260, 173, 279, 440, 204, 284, 472, 556, 206, 407, 351, 113, 254, 454, 295, 250, 375, 310, 276, 337, 227, 280]);
